* ENCODING=ISO-8859-1
NAME          CPLEX
ROWS
 N  obj1    
 G  c1      
 G  c2      
 G  c3      
 G  c4      
 G  c5      
 G  c6      
 G  c7      
 G  c8      
 G  c9      
 G  c10     
 G  c11     
 G  c12     
 G  c13     
 G  c14     
 G  c15     
 G  c16     
 G  c17     
 G  c18     
 G  c19     
 G  c20     
 G  c21     
 G  c22     
 G  c23     
 G  c24     
 G  c25     
 G  c26     
 G  c27     
 G  c28     
 G  c29     
 G  c30     
COLUMNS
    MARK0000  'MARKER'                 'INTORG'
    x1        obj1                            1
    x2        obj1                            1
    x2        c4                            177
    x2        c12                           622
    x2        c24                           692
    x3        obj1                            1
    x3        c12                           851
    x3        c19                           299
    x3        c22                           302
    x4        obj1                            1
    x4        c7                            538
    x4        c22                           524
    x4        c30                           578
    x5        obj1                            1
    x5        c1                            418
    x5        c3                            916
    x5        c12                           628
    x5        c13                           619
    x6        obj1                            1
    x6        c2                            638
    x6        c6                            892
    x6        c10                           154
    x6        c28                           625
    x7        obj1                            1
    x7        c11                           958
    x7        c23                           945
    x8        obj1                            1
    x8        c13                           335
    x8        c22                           897
    x9        obj1                            1
    x9        c5                            662
    x10       obj1                            1
    x10       c9                            923
    x10       c17                           379
    x10       c22                           256
    x11       obj1                            1
    x11       c3                            642
    x11       c4                            602
    x11       c8                            999
    x12       obj1                            1
    x12       c1                            443
    x12       c6                            490
    x12       c16                           602
    x12       c24                           446
    x12       c27                           537
    x12       c29                           890
    x13       obj1                            1
    x13       c16                           567
    x13       c18                           327
    x14       obj1                            1
    x14       c24                           494
    x14       c25                           557
    x14       c26                           262
    x15       obj1                            1
    x15       c17                           371
    x15       c22                           429
    x15       c26                           316
    x15       c30                           688
    x16       obj1                            1
    x16       c10                           660
    x16       c20                           161
    x17       obj1                            1
    x17       c15                           268
    x17       c19                           276
    x17       c24                           412
    x17       c25                           863
    x18       obj1                            1
    x18       c23                           320
    x19       obj1                            1
    x19       c8                            628
    x19       c9                            691
    x19       c27                           699
    x20       obj1                            1
    x21       obj1                            1
    x21       c15                           435
    x21       c24                           648
    x22       obj1                            1
    x22       c2                            586
    x22       c9                            866
    x22       c18                           422
    x22       c24                           468
    x23       obj1                            1
    x23       c12                           398
    x23       c18                           782
    x24       obj1                            1
    x24       c3                            420
    x24       c13                           457
    x24       c30                           469
    x25       obj1                            1
    x25       c19                           195
    x25       c20                           590
    x25       c21                           354
    x26       obj1                            1
    x26       c6                            557
    x26       c17                           898
    x26       c19                           735
    x26       c22                           237
    x27       obj1                            1
    x27       c29                           728
    x28       obj1                            1
    x28       c12                           675
    x28       c30                           367
    x29       obj1                            1
    x29       c3                            522
    x29       c18                           929
    x29       c26                           371
    x29       c29                           883
    x30       obj1                            1
    x30       c8                            313
    x30       c16                           172
    x30       c19                           280
    x31       obj1                            1
    x31       c14                           484
    x31       c17                           514
    x31       c19                           697
    x31       c20                           810
    x31       c27                           349
    x32       obj1                            1
    x32       c4                            458
    x32       c6                            440
    x32       c12                           764
    x32       c27                           998
    x32       c30                           125
    x33       obj1                            1
    x33       c21                           821
    x34       obj1                            1
    x34       c9                            419
    x34       c11                           192
    x34       c21                           789
    x34       c26                           917
    x35       obj1                            1
    x35       c5                            698
    x35       c12                           432
    x35       c18                           312
    x36       obj1                            1
    x36       c6                            412
    x36       c7                            242
    x36       c15                           669
    x37       obj1                            1
    x37       c23                           692
    x37       c26                           556
    x37       c30                           345
    x38       obj1                            1
    x38       c2                            142
    x38       c7                            770
    x38       c8                            728
    x38       c13                           930
    x38       c20                           803
    x38       c22                           133
    x38       c24                           657
    x39       obj1                            1
    x39       c17                           460
    x39       c21                           573
    x39       c29                           881
    x40       obj1                            1
    x40       c19                           487
    x41       obj1                            1
    x41       c1                            408
    x41       c12                           603
    x41       c21                           546
    x41       c30                           283
    x42       obj1                            1
    x42       c1                            167
    x42       c7                            170
    x42       c14                           497
    x42       c18                           467
    x43       obj1                            1
    x43       c7                            857
    x43       c8                            117
    x44       obj1                            1
    x44       c25                           845
    x44       c28                           850
    x45       obj1                            1
    x45       c9                            310
    x45       c10                           983
    x45       c19                           555
    x45       c20                           966
    x46       obj1                            1
    x46       c14                           280
    x46       c16                           883
    x47       obj1                            1
    x47       c2                            134
    x47       c7                            184
    x47       c24                           370
    x48       obj1                            1
    x48       c30                           365
    x49       obj1                            1
    x49       c4                            220
    x50       obj1                            1
    x50       c5                            125
    x50       c8                            575
    x50       c15                           874
    x50       c19                           640
    x50       c20                           290
    x50       c26                           637
    x51       obj1                            1
    x52       obj1                            1
    x52       c1                            483
    x52       c21                           774
    x53       obj1                            1
    x53       c4                            405
    x53       c11                           451
    x53       c24                           736
    x54       obj1                            1
    x54       c27                           403
    x55       obj1                            1
    x55       c3                            384
    x55       c14                           478
    x56       obj1                            1
    x56       c7                            860
    x56       c17                           327
    x56       c25                           616
    x57       obj1                            1
    x57       c18                           314
    x57       c26                           374
    x57       c28                           227
    x57       c29                           657
    x58       obj1                            1
    x58       c2                            191
    x58       c3                            977
    x58       c16                           429
    x58       c27                           244
    x59       obj1                            1
    x59       c4                            105
    x59       c14                           922
    x59       c23                           734
    x59       c29                           768
    x59       c30                           211
    x60       obj1                            1
    x60       c3                            309
    x60       c7                            764
    x60       c10                           755
    x60       c23                           462
    x60       c27                           671
    MARK0001  'MARKER'                 'INTEND'
RHS
    rhs       c1                            960
    rhs       c2                            846
    rhs       c3                           2085
    rhs       c4                            984
    rhs       c5                            743
    rhs       c6                           1396
    rhs       c7                           2193
    rhs       c8                           1680
    rhs       c9                           1605
    rhs       c10                          1276
    rhs       c11                           801
    rhs       c12                          2487
    rhs       c13                          1171
    rhs       c14                          1331
    rhs       c15                          1123
    rhs       c16                          1327
    rhs       c17                          1475
    rhs       c18                          1777
    rhs       c19                          2082
    rhs       c20                          1810
    rhs       c21                          1929
    rhs       c22                          1389
    rhs       c23                          1577
    rhs       c24                          2462
    rhs       c25                          1441
    rhs       c26                          1717
    rhs       c27                          1951
    rhs       c28                           851
    rhs       c29                          2404
    rhs       c30                          1716
BOUNDS
 LI bnd       x1        0
 LI bnd       x2        0
 LI bnd       x3        0
 LI bnd       x4        0
 LI bnd       x5        0
 LI bnd       x6        0
 LI bnd       x7        0
 LI bnd       x8        0
 LI bnd       x9        0
 LI bnd       x10       0
 LI bnd       x11       0
 LI bnd       x12       0
 LI bnd       x13       0
 LI bnd       x14       0
 LI bnd       x15       0
 LI bnd       x16       0
 LI bnd       x17       0
 LI bnd       x18       0
 LI bnd       x19       0
 LI bnd       x20       0
 LI bnd       x21       0
 LI bnd       x22       0
 LI bnd       x23       0
 LI bnd       x24       0
 LI bnd       x25       0
 LI bnd       x26       0
 LI bnd       x27       0
 LI bnd       x28       0
 LI bnd       x29       0
 LI bnd       x30       0
 LI bnd       x31       0
 LI bnd       x32       0
 LI bnd       x33       0
 LI bnd       x34       0
 LI bnd       x35       0
 LI bnd       x36       0
 LI bnd       x37       0
 LI bnd       x38       0
 LI bnd       x39       0
 LI bnd       x40       0
 LI bnd       x41       0
 LI bnd       x42       0
 LI bnd       x43       0
 LI bnd       x44       0
 LI bnd       x45       0
 LI bnd       x46       0
 LI bnd       x47       0
 LI bnd       x48       0
 LI bnd       x49       0
 LI bnd       x50       0
 LI bnd       x51       0
 LI bnd       x52       0
 LI bnd       x53       0
 LI bnd       x54       0
 LI bnd       x55       0
 LI bnd       x56       0
 LI bnd       x57       0
 LI bnd       x58       0
 LI bnd       x59       0
 LI bnd       x60       0
ENDATA
